Instance: E151-12b.dat
Class:  1
150 --- number of customers (no depot)
12 --- number of vehicles
150 --- number of items
Capacity - height - width of vehicles
   200     40     20
Node - x - y - demand  Readytime Duetime
  0.00   35.00  35.00   0.00 0       551.00
  1.00   41.00  49.00  10.00 261.00  280.00
  2.00   35.00  17.00   7.00 431.00  448.00
  3.00   55.00  45.00  13.00 384.00  403.00
  4.00   55.00  20.00  19.00 263.00  281.00
  5.00   15.00  30.00  26.00 256.00  272.00
  6.00   25.00  30.00   3.00  64.00   79.00
  7.00   20.00  50.00   5.00 431.00  452.00
  8.00   10.00  43.00   9.00 275.00  297.00
  9.00   55.00  60.00  16.00 239.00  265.00
 10.00   30.00  60.00  16.00 278.00  308.00
 11.00   20.00  65.00  12.00 198.00  228.00
 12.00   50.00  35.00  19.00 164.00  191.00
 13.00   30.00  25.00  23.00  39.00   57.00
 14.00   15.00  10.00  20.00 134.00  164.00
 15.00   30.00   5.00   8.00  84.00  101.00
 16.00   10.00  20.00  19.00 223.00  249.00
 17.00    5.00  30.00   2.00 345.00  375.00
 18.00   20.00  40.00  12.00 158.00  179.00
 19.00   15.00  60.00  17.00 378.00  398.00
 20.00   45.00  65.00   9.00 110.00  125.00
 21.00   45.00  20.00  11.00 440.00  460.00
 22.00   45.00  10.00  18.00 239.00  265.00
 23.00   55.00   5.00  29.00 144.00  167.00
 24.00   65.00  35.00   3.00 419.00  447.00
 25.00   65.00  20.00   6.00 435.00  462.00
 26.00   45.00  30.00  17.00 365.00  388.00
 27.00   35.00  40.00  16.00 286.00  303.00
 28.00   41.00  37.00  16.00 108.00  124.00
 29.00   64.00  42.00   9.00 163.00  188.00
 30.00   40.00  60.00  21.00  28.00   50.00
 31.00   31.00  52.00  27.00 351.00  375.00
 32.00   35.00  69.00  23.00 417.00  447.00
 33.00   53.00  52.00  11.00 420.00  441.00
 34.00   65.00  55.00  14.00 100.00  125.00
 35.00   63.00  65.00   8.00 229.00  248.00
 36.00    2.00  60.00   5.00 427.00  449.00
 37.00   20.00  20.00   8.00 249.00  273.00
 38.00    5.00   5.00  16.00 384.00  414.00
 39.00   60.00  12.00  31.00 274.00  296.00
 40.00   40.00  25.00   9.00 369.00  399.00
 41.00   42.00   7.00   5.00 344.00  373.00
 42.00   24.00  12.00   5.00 388.00  416.00
 43.00   23.00   3.00   7.00 186.00  201.00
 44.00   11.00  14.00  18.00  78.00  105.00
 45.00    6.00  38.00  16.00 133.00  157.00
 46.00    2.00  48.00   1.00 241.00  257.00
 47.00    8.00  56.00  27.00 296.00  320.00
 48.00   13.00  52.00  36.00 433.00  461.00
 49.00    6.00  68.00  30.00  74.00  100.00
 50.00   47.00  47.00  13.00 413.00  428.00
 51.00   49.00  58.00  10.00 299.00  325.00
 52.00   27.00  43.00   9.00 231.00  257.00
 53.00   37.00  31.00  14.00 416.00  436.00
 54.00   57.00  29.00  18.00 288.00  317.00
 55.00   63.00  23.00   2.00 379.00  403.00
 56.00   53.00  12.00   6.00 204.00  219.00
 57.00   32.00  12.00   7.00 189.00  219.00
 58.00   36.00  26.00  18.00 415.00  443.00
 59.00   21.00  24.00  28.00 143.00  171.00
 60.00   17.00  34.00   3.00  69.00   97.00
 61.00   12.00  24.00  13.00 270.00  288.00
 62.00   24.00  58.00  19.00 350.00  379.00
 63.00   27.00  69.00  10.00 139.00  155.00
 64.00   15.00  77.00   9.00 305.00  321.00
 65.00   62.00  77.00  20.00 376.00  391.00
 66.00   49.00  73.00  25.00 352.00  380.00
 67.00   67.00   5.00  25.00  63.00   93.00
 68.00   56.00  39.00  36.00 223.00  253.00
 69.00   37.00  47.00   6.00 185.00  210.00
 70.00   37.00  56.00   5.00 448.00  467.00
 71.00   57.00  68.00  15.00 226.00  252.00
 72.00   47.00  16.00  25.00  92.00  120.00
 73.00   44.00  17.00   9.00 281.00  309.00
 74.00   46.00  13.00   8.00  80.00  109.00
 75.00   49.00  11.00  18.00 422.00  445.00
 76.00   49.00  42.00  13.00 411.00  433.00
 77.00   53.00  43.00  14.00 303.00  332.00
 78.00   61.00  52.00   3.00 237.00  258.00
 79.00   57.00  48.00  23.00 283.00  300.00
 80.00   56.00  37.00   6.00 184.00  200.00
 81.00   55.00  54.00  26.00 205.00  227.00
 82.00   15.00  47.00  16.00 165.00  193.00
 83.00   14.00  37.00  11.00 313.00  329.00
 84.00   11.00  31.00   7.00 147.00  174.00
 85.00   16.00  22.00  41.00  38.00   54.00
 86.00    4.00  18.00  35.00 264.00  279.00
 87.00   28.00  18.00  26.00 225.00  252.00
 88.00   26.00  52.00   9.00 432.00  459.00
 89.00   26.00  35.00  15.00 135.00  155.00
 90.00   31.00  67.00   3.00 396.00  422.00
 91.00   15.00  19.00   1.00 317.00  345.00
 92.00   22.00  22.00   2.00   8.00   50.00
 93.00   18.00  24.00  22.00 321.00  350.00
 94.00   26.00  27.00  27.00 421.00  437.00
 95.00   25.00  24.00  20.00  28.00   50.00
 96.00   22.00  27.00  11.00 392.00  418.00
 97.00   25.00  21.00  12.00 369.00  386.00
 98.00   19.00  21.00  10.00  96.00  115.00
 99.00   20.00  26.00   9.00 424.00  454.00
100.00   18.00  18.00  17.00 103.00  128.00
101.00   37.00  52.00   7.00 272.00  298.00
102.00   49.00  49.00  30.00 289.00  317.00
103.00   52.00  64.00  16.00 110.00  126.00
104.00   20.00  26.00   9.00 381.00  409.00
105.00   40.00  30.00  21.00 225.00  247.00
106.00   21.00  47.00  15.00 183.00  204.00
107.00   17.00  63.00  19.00  41.00   61.00
108.00   31.00  62.00  23.00 396.00  417.00
109.00   52.00  33.00  11.00 247.00  272.00
110.00   51.00  21.00   5.00 364.00  385.00
111.00   42.00  41.00  19.00 185.00  209.00
112.00   31.00  32.00  29.00  83.00  108.00
113.00    5.00  25.00  23.00 386.00  404.00
114.00   12.00  42.00  21.00 404.00  429.00
115.00   36.00  16.00  10.00 295.00  315.00
116.00   52.00  41.00  15.00 125.00  144.00
117.00   27.00  23.00   3.00 234.00  251.00
118.00   17.00  33.00  41.00  48.00   66.00
119.00   13.00  13.00   9.00 225.00  241.00
120.00   57.00  58.00  28.00 146.00  173.00
121.00   62.00  42.00   8.00 263.00  278.00
122.00   42.00  57.00   8.00  66.00   88.00
123.00   16.00  57.00  16.00 187.00  204.00
124.00    8.00  52.00  10.00 323.00  348.00
125.00    7.00  38.00  28.00 321.00  341.00
126.00   27.00  68.00   7.00 249.00  273.00
127.00   30.00  48.00  15.00  20.00   50.00
128.00   43.00  67.00  14.00 308.00  326.00
129.00   58.00  48.00   6.00 324.00  352.00
130.00   58.00  27.00  19.00  90.00  119.00
131.00   37.00  69.00  11.00 158.00  181.00
132.00   38.00  46.00  12.00 153.00  177.00
133.00   46.00  10.00  23.00 398.00  421.00
134.00   61.00  33.00  26.00 130.00  157.00
135.00   62.00  63.00  17.00 256.00  280.00
136.00   63.00  69.00   6.00  76.00  104.00
137.00   32.00  22.00   9.00  15.00   50.00
138.00   45.00  35.00  15.00 270.00  297.00
139.00   59.00  15.00  14.00  12.00   50.00
140.00    5.00   6.00   7.00 280.00  299.00
141.00   10.00  17.00  27.00 199.00  222.00
142.00   21.00  10.00  13.00  54.00   82.00
143.00    5.00  64.00  11.00 309.00  326.00
144.00   30.00  15.00  16.00  35.00   52.00
145.00   39.00  10.00  10.00 372.00  389.00
146.00   32.00  39.00   5.00 405.00  426.00
147.00   25.00  32.00  25.00 274.00  299.00
148.00   25.00  55.00  17.00  80.00  103.00
149.00   48.00  28.00  18.00 278.00  299.00
150.00   56.00  37.00  10.00 120.00  147.00
Node - number of items - h - w for each item
    0   0
    1   1   14    5
    2   1   11    5
    3   2    9    8   23    2
    4   2    4   10   12    2
    5   3    6   13   14    7    9    6
    6   1    6   12
    7   2    4   14   13    5
    8   3    5    8   15    7   15    3
    9   1   17    4
   10   2    7   16    7   15
   11   2    6   11   32    3
   12   1   13    4
   13   3    6    8   23    2   22    2
   14   1   19    2
   15   2    6   13   11    4
   16   2   16    7   14    4
   17   1    6   14
   18   2    5    6   29    2
   19   1    7   13
   20   3    6   12   15    6   31    3
   21   1    7   13
   22   2    4    8    5    6
   23   2   14    6   18    3
   24   3   13    8   15    7   29    4
   25   3    6   12   10    6   29    4
   26   2   31    4   23    3
   27   3    8   16    8   15   10    4
   28   1    6   15
   29   3    9    7   11    5   15    4
   30   3    5   12   10    8   22    3
   31   1   28    3
   32   1   14    8
   33   3   25    3   14    3   21    2
   34   2    5    8    5    7
   35   3    4    6    9    5   30    2
   36   2   16    4   15    4
   37   3    8   14   14    4   29    2
   38   2   32    4   30    4
   39   1   12    6
   40   2   16    7    5    6
   41   3    6   13   23    4   22    3
   42   2   30    3   29    2
   43   1    8   10
   44   2   14    5   26    2
   45   1   31    3
   46   1    8   11
   47   3    8    6    8    5   26    4
   48   1    7   11
   49   1   29    4
   50   3    5    9    8    7   10    6
   51   1   20    3
   52   1   10    7
   53   3    7   10   27    4   25    4
   54   3    6   13    8    9   21    3
   55   3   13    5   13    4   16    3
   56   1   27    3
   57   2    5    7   13    4
   58   3    5    9    7    7   25    3
   59   3    6   15   12    4   13    3
   60   1   28    3
   61   2   12    7   20    3
   62   3    8    8   15    6   21    4
   63   3    5   16    6   15   23    4
   64   2    8   16    8    7
   65   3    6   15    8   14    8    4
   66   1    9    7
   67   3    6   13   10    4   13    3
   68   2   12    7   16    3
   69   1    6   10
   70   2    6    6   15    5
   71   2    7   11   32    3
   72   1   24    2
   73   2    5   11   28    2
   74   2   12    6   22    4
   75   3   13    7   27    4   16    4
   76   3   14    7    9    6   23    4
   77   2    9    5   13    4
   78   2    8   13   12    6
   79   3    6   11    7    8   30    4
   80   3    8   14    4    9   10    6
   81   1    7   15
   82   3   14    8    4    8   20    4
   83   1   10    6
   84   2    8   11    5    9
   85   2    6   13   19    2
   86   1   30    3
   87   1   12    6
   88   2    7   13   23    2
   89   3    7   10   21    4   27    2
   90   2    5   10    5    6
   91   2   14    7   12    5
   92   1   12    6
   93   1   14    2
   94   2   11    5   21    4
   95   3    6    9   22    3   15    3
   96   3    7   15    6   14   25    2
   97   3    5    8    8    7    8    6
   98   3    6   15    5    7    5    7
   99   2   11    6   13    4
  100   1   18    4
  101   2    9    5   24    3
  102   2    7    9   31    3
  103   1    5    7
  104   1   12    7
  105   3    7   16    8    6   18    4
  106   1   15    4
  107   1    6   14
  108   2   14    7   24    2
  109   2    6   13    7   12
  110   3   16    7   11    6   17    3
  111   3    6   11    9    7   24    3
  112   3    8   13    8    7   31    3
  113   1   13    3
  114   1    6    9
  115   2    5   11   15    7
  116   1   11    8
  117   2   12    8    9    6
  118   1   29    3
  119   2   15    6   25    2
  120   3   14    5   32    3   28    3
  121   1   21    2
  122   1   16    3
  123   3   13    7   10    7   15    6
  124   3    5    7    4    7   23    3
  125   3    7   13    7   10   30    4
  126   1    9    4
  127   3    5   16   23    3   21    3
  128   1   12    8
  129   2   11    8   23    2
  130   2    5    7   29    2
  131   3    6   13   13    6   31    3
  132   1    5   12
  133   1    6    7
  134   1    6    7
  135   1    4   14
  136   1    4   14
  137   3   10    6   15    4   25    3
  138   1   12    8
  139   3   12    7   25    3   14    3
  140   2    6   14    8    6
  141   2    5   13   11    6
  142   3    8    7   15    5   22    3
  143   3    8   15   19    3   18    2
  144   3    7   15    7   10   13    6
  145   1   15    4
  146   2   10    7   15    3
  147   2    8    9   25    4
  148   1   24    3
  149   2    7    6   14    5
  150   3    9    7   16    6   15    5
